/*********************************************
 * OPL 12.6.0.0 Data
 * Author: Adrian Rodriguez Bazaga, Pau Rodriguez Esmerats
 * Creation Date: 09/12/2017 at 00:43:06
 *********************************************/

maxConsec=13;
maxPresence=13;
maxHours=2;
minHours=1;
hours=20;
demand= [11 16 16 15 10 5 0 0 0 0 0 0 0 0 0 0 0 0 0 0  ];
nNurses=16;
